(declare-const X String)
; (0?[1-9]|[12][0-9]|3[01])-(0?[1-9]|1[012])-((19|20)\\d\\d)
(assert (str.in_re X (re.++ (re.union (re.++ (re.opt (str.to_re "0")) (re.range "1" "9")) (re.++ (re.union (str.to_re "1") (str.to_re "2")) (re.range "0" "9")) (re.++ (str.to_re "3") (re.union (str.to_re "0") (str.to_re "1")))) (str.to_re "-") (re.union (re.++ (re.opt (str.to_re "0")) (re.range "1" "9")) (re.++ (str.to_re "1") (re.union (str.to_re "0") (str.to_re "1") (str.to_re "2")))) (str.to_re "-\u{a}") (re.union (str.to_re "19") (str.to_re "20")) (str.to_re "\u{5c}d\u{5c}d"))))
; www\u{2E}zhongsou\u{2E}com\sisHost\u{3A}are
(assert (not (str.in_re X (re.++ (str.to_re "www.zhongsou.com") (re.union (str.to_re " ") (str.to_re "\u{9}") (str.to_re "\u{a}") (str.to_re "\u{c}") (str.to_re "\u{d}")) (str.to_re "isHost:are\u{a}")))))
; sidesearch\.dropspam\.com\s+Strip-Player\s+
(assert (not (str.in_re X (re.++ (str.to_re "sidesearch.dropspam.com") (re.+ (re.union (str.to_re " ") (str.to_re "\u{9}") (str.to_re "\u{a}") (str.to_re "\u{c}") (str.to_re "\u{d}"))) (str.to_re "Strip-Player\u{1b}") (re.+ (re.union (str.to_re " ") (str.to_re "\u{9}") (str.to_re "\u{a}") (str.to_re "\u{c}") (str.to_re "\u{d}"))) (str.to_re "\u{a}")))))
; OSSProxyZC-BridgeHost\u{3A}Referer\u{3a}FunWebProducts
(assert (str.in_re X (str.to_re "OSSProxyZC-BridgeHost:Referer:FunWebProducts\u{a}")))
(check-sat)
